53075
9 1 10 11 18 8 -1 500 250 100 100 50 500 
1 10 11 18 4 17 14 13 20 3 5 16 15 -1 250 100 100 50 250 100 100 100 25 250 50 25 100 
2
1
6 19 -1 25 15 
19 3 -1 10 30 
14 -1 40 
14 -1 40 
14 13 -1 20 20 
13 -1 40 
13 -1 40 
3 -1 40 
3 -1 40 
3 -1 40 
3 -1 40 
3 -1 40 
3 5 -1 20 20 
5 7 -1 30 10 
12 7 -1 25 15 
2 -1 25 
2
19 6 -1 25 15 
